(set-logic QF_S)
(declare-fun var0 () String)
(declare-fun var1 () String)
(declare-fun var2 () String)
(declare-fun var3 () String)
(declare-fun var4 () Int)
(assert (str.in.re var0 re.allchar))
(assert (<= (str.to.int var1) (str.indexof var2 var3 var4)))
(assert (str.in.re var3 re.allchar))
(assert (<= (str.len var2) (str.len var0)))
(check-sat)